; DUP1 MLOAD SWAP4 POP POP PUSH 0x00 => MLOAD SWAP3 MLOAD PUSH 0x00 GT
(set-option :produce-proofs true)
; 
(set-info :status unknown)
(declare-fun storage_t ((_ BitVec 256) (_ BitVec 256) (_ BitVec 256) (_ BitVec 256) (_ BitVec 256) (_ BitVec 256) Int (_ BitVec 256)) (_ BitVec 256))
(declare-fun storage_s ((_ BitVec 256) (_ BitVec 256) (_ BitVec 256) (_ BitVec 256) (_ BitVec 256) (_ BitVec 256) Int (_ BitVec 256)) (_ BitVec 256))
(declare-fun exc_halt_t (Int) Bool)
(declare-fun exc_halt_s (Int) Bool)
(declare-fun sc_t (Int) (_ BitVec 6))
(declare-fun stack_t ((_ BitVec 256) (_ BitVec 256) (_ BitVec 256) (_ BitVec 256) (_ BitVec 256) (_ BitVec 256) Int (_ BitVec 6)) (_ BitVec 256))
(declare-fun stack_s ((_ BitVec 256) (_ BitVec 256) (_ BitVec 256) (_ BitVec 256) (_ BitVec 256) (_ BitVec 256) Int (_ BitVec 6)) (_ BitVec 256))
(declare-fun sc_s (Int) (_ BitVec 6))
(declare-fun used_gas_t ((_ BitVec 256) (_ BitVec 256) (_ BitVec 256) (_ BitVec 256) (_ BitVec 256) (_ BitVec 256) Int) Int)
(declare-fun used_gas_s ((_ BitVec 256) (_ BitVec 256) (_ BitVec 256) (_ BitVec 256) (_ BitVec 256) (_ BitVec 256) Int) Int)
(declare-fun f_MLOAD ((_ BitVec 256) (_ BitVec 256) (_ BitVec 256) (_ BitVec 256) (_ BitVec 256) (_ BitVec 256) (_ BitVec 256)) (_ BitVec 256))
(assert
 (exists ((x_0 (_ BitVec 256)) (x_1 (_ BitVec 256)) (x_2 (_ BitVec 256)) (x_3 (_ BitVec 256)) (x_MLOAD_0 (_ BitVec 256)) (x_MLOAD_1 (_ BitVec 256)) )(let (($x7531 (forall ((w (_ BitVec 256)) )(let ((?x1845 (storage_t x_0 x_1 x_2 x_3 x_MLOAD_0 x_MLOAD_1 5 w)))
 (let ((?x10880 (storage_s x_0 x_1 x_2 x_3 x_MLOAD_0 x_MLOAD_1 6 w)))
 (= ?x10880 ?x1845))))
 ))
 (let (($x1885 (exc_halt_t 5)))
 (let (($x772 (exc_halt_s 6)))
 (let (($x11108 (= $x772 $x1885)))
 (let (($x7520 (forall ((n (_ BitVec 6)) )(let ((?x4013 (stack_t x_0 x_1 x_2 x_3 x_MLOAD_0 x_MLOAD_1 5 n)))
 (let ((?x2927 (stack_s x_0 x_1 x_2 x_3 x_MLOAD_0 x_MLOAD_1 6 n)))
 (let (($x549 (= ?x2927 ?x4013)))
 (or $x549 (bvsle (sc_t 5) n))))))
 ))
 (let ((?x8961 (sc_t 5)))
 (let ((?x926 (sc_s 6)))
 (let (($x5889 (= ?x926 ?x8961)))
 (let ((?x6023 (used_gas_t x_0 x_1 x_2 x_3 x_MLOAD_0 x_MLOAD_1 0)))
 (let ((?x1844 (used_gas_s x_0 x_1 x_2 x_3 x_MLOAD_0 x_MLOAD_1 0)))
 (let (($x6578 (= ?x1844 ?x6023)))
 (let (($x1079 (forall ((w (_ BitVec 256)) )(let ((?x1297 (storage_t x_0 x_1 x_2 x_3 x_MLOAD_0 x_MLOAD_1 0 w)))
 (let ((?x6116 (storage_s x_0 x_1 x_2 x_3 x_MLOAD_0 x_MLOAD_1 0 w)))
 (= ?x6116 ?x1297))))
 ))
 (let (($x56 (exc_halt_t 0)))
 (let (($x57 (exc_halt_s 0)))
 (let (($x58 (= $x57 $x56)))
 (let (($x337 (forall ((n (_ BitVec 6)) )(let ((?x2900 (stack_t x_0 x_1 x_2 x_3 x_MLOAD_0 x_MLOAD_1 0 n)))
 (let ((?x10868 (stack_s x_0 x_1 x_2 x_3 x_MLOAD_0 x_MLOAD_1 0 n)))
 (let (($x5963 (= ?x10868 ?x2900)))
 (let ((?x63 (sc_t 0)))
 (let (($x3382 (bvsle ?x63 n)))
 (or $x3382 $x5963)))))))
 ))
 (let ((?x63 (sc_t 0)))
 (let ((?x72 (sc_s 0)))
 (let (($x73 (= ?x72 ?x63)))
 (let (($x5714 (= $x1885 (or (exc_halt_t 4) (not (bvsle (_ bv0 6) (bvadd (_ bv62 6) (sc_t 4))))))))
 (let (($x4149 (forall ((w (_ BitVec 256)) )(let ((?x9402 (storage_t x_0 x_1 x_2 x_3 x_MLOAD_0 x_MLOAD_1 4 w)))
 (let ((?x1845 (storage_t x_0 x_1 x_2 x_3 x_MLOAD_0 x_MLOAD_1 5 w)))
 (= ?x1845 ?x9402))))
 ))
 (let (($x7666 (forall ((n (_ BitVec 6)) )(let ((?x3810 (stack_t x_0 x_1 x_2 x_3 x_MLOAD_0 x_MLOAD_1 4 n)))
 (let ((?x4013 (stack_t x_0 x_1 x_2 x_3 x_MLOAD_0 x_MLOAD_1 5 n)))
 (or (bvsle (bvadd (_ bv62 6) (sc_t 4)) n) (= ?x4013 ?x3810)))))
 ))
 (let (($x1712 (= (used_gas_t x_0 x_1 x_2 x_3 x_MLOAD_0 x_MLOAD_1 5) (+ 3 (used_gas_t x_0 x_1 x_2 x_3 x_MLOAD_0 x_MLOAD_1 4)))))
 (let ((?x4818 (sc_t 4)))
 (let ((?x1388 (bvadd (_ bv62 6) ?x4818)))
 (let (($x8892 (bvule (stack_t x_0 x_1 x_2 x_3 x_MLOAD_0 x_MLOAD_1 4 (bvadd (_ bv63 6) ?x4818)) (stack_t x_0 x_1 x_2 x_3 x_MLOAD_0 x_MLOAD_1 4 ?x1388))))
 (let (($x7134 (= (stack_t x_0 x_1 x_2 x_3 x_MLOAD_0 x_MLOAD_1 5 (bvadd (_ bv63 6) ?x8961)) (ite $x8892 (_ bv0 256) (_ bv1 256)))))
 (let (($x3614 (exc_halt_t 3)))
 (let (($x8797 (or $x3614 (not (= ((_ extract 6 6) (bvadd (_ bv1 7) (concat (_ bv0 1) (sc_t 3)))) (_ bv0 1))))))
 (let (($x7854 (exc_halt_t 4)))
 (let (($x5900 (= $x7854 $x8797)))
 (let (($x3740 (forall ((w (_ BitVec 256)) )(let ((?x9551 (storage_t x_0 x_1 x_2 x_3 x_MLOAD_0 x_MLOAD_1 3 w)))
 (let ((?x9402 (storage_t x_0 x_1 x_2 x_3 x_MLOAD_0 x_MLOAD_1 4 w)))
 (= ?x9402 ?x9551))))
 ))
 (let (($x2215 (forall ((n (_ BitVec 6)) )(let ((?x11304 (sc_t 3)))
 (let (($x10653 (bvsle ?x11304 n)))
 (let ((?x6378 (stack_t x_0 x_1 x_2 x_3 x_MLOAD_0 x_MLOAD_1 3 n)))
 (let ((?x3810 (stack_t x_0 x_1 x_2 x_3 x_MLOAD_0 x_MLOAD_1 4 n)))
 (or (= ?x3810 ?x6378) $x10653))))))
 ))
 (let (($x3631 (= ?x4818 (bvadd (_ bv1 6) (sc_t 3)))))
 (let ((?x3122 (used_gas_t x_0 x_1 x_2 x_3 x_MLOAD_0 x_MLOAD_1 4)))
 (let (($x1423 (= $x3614 (or (exc_halt_t 2) (not (bvsle (_ bv0 6) (bvadd (_ bv63 6) (sc_t 2))))))))
 (let (($x4289 (forall ((w (_ BitVec 256)) )(let ((?x4182 (storage_t x_0 x_1 x_2 x_3 x_MLOAD_0 x_MLOAD_1 2 w)))
 (let ((?x9551 (storage_t x_0 x_1 x_2 x_3 x_MLOAD_0 x_MLOAD_1 3 w)))
 (= ?x9551 ?x4182))))
 ))
 (let (($x2555 (forall ((n (_ BitVec 6)) )(let ((?x6158 (sc_t 2)))
 (let ((?x9406 (bvadd (_ bv63 6) ?x6158)))
 (let (($x7532 (bvsle ?x9406 n)))
 (let ((?x3062 (stack_t x_0 x_1 x_2 x_3 x_MLOAD_0 x_MLOAD_1 2 n)))
 (let ((?x6378 (stack_t x_0 x_1 x_2 x_3 x_MLOAD_0 x_MLOAD_1 3 n)))
 (or (= ?x6378 ?x3062) $x7532)))))))
 ))
 (let ((?x6158 (sc_t 2)))
 (let ((?x11304 (sc_t 3)))
 (let (($x7970 (= ?x11304 ?x6158)))
 (let ((?x11658 (used_gas_t x_0 x_1 x_2 x_3 x_MLOAD_0 x_MLOAD_1 3)))
 (let ((?x9406 (bvadd (_ bv63 6) ?x6158)))
 (let ((?x6942 (stack_t x_0 x_1 x_2 x_3 x_MLOAD_0 x_MLOAD_1 2 ?x9406)))
 (let (($x8397 (= (stack_t x_0 x_1 x_2 x_3 x_MLOAD_0 x_MLOAD_1 3 (bvadd (_ bv63 6) ?x11304)) (f_MLOAD x_0 x_1 x_2 x_3 x_MLOAD_0 x_MLOAD_1 ?x6942))))
 (let (($x1066 (exc_halt_t 2)))
 (let (($x171 (= $x1066 (or (exc_halt_t 1) (not (bvsle (_ bv0 6) (bvadd (_ bv60 6) (sc_t 1))))))))
 (let (($x1703 (forall ((w (_ BitVec 256)) )(let ((?x7828 (storage_t x_0 x_1 x_2 x_3 x_MLOAD_0 x_MLOAD_1 1 w)))
 (let ((?x4182 (storage_t x_0 x_1 x_2 x_3 x_MLOAD_0 x_MLOAD_1 2 w)))
 (= ?x4182 ?x7828))))
 ))
 (let (($x11922 (forall ((n (_ BitVec 6)) )(let ((?x3611 (stack_t x_0 x_1 x_2 x_3 x_MLOAD_0 x_MLOAD_1 1 n)))
 (let ((?x3062 (stack_t x_0 x_1 x_2 x_3 x_MLOAD_0 x_MLOAD_1 2 n)))
 (or (bvsle (bvadd (_ bv60 6) (sc_t 1)) n) (= ?x3062 ?x3611)))))
 ))
 (let ((?x7154 (sc_t 1)))
 (let (($x4685 (= ?x6158 ?x7154)))
 (let ((?x2739 (used_gas_t x_0 x_1 x_2 x_3 x_MLOAD_0 x_MLOAD_1 2)))
 (let (($x8631 (= (stack_t x_0 x_1 x_2 x_3 x_MLOAD_0 x_MLOAD_1 2 (bvadd (_ bv62 6) ?x6158)) (stack_t x_0 x_1 x_2 x_3 x_MLOAD_0 x_MLOAD_1 1 (bvadd (_ bv62 6) ?x7154)))))
 (let (($x6703 (= (stack_t x_0 x_1 x_2 x_3 x_MLOAD_0 x_MLOAD_1 2 (bvadd (_ bv61 6) ?x6158)) (stack_t x_0 x_1 x_2 x_3 x_MLOAD_0 x_MLOAD_1 1 (bvadd (_ bv61 6) ?x7154)))))
 (let ((?x10304 (bvadd (_ bv63 6) ?x7154)))
 (let ((?x1074 (stack_t x_0 x_1 x_2 x_3 x_MLOAD_0 x_MLOAD_1 1 ?x10304)))
 (let (($x1014 (= (stack_t x_0 x_1 x_2 x_3 x_MLOAD_0 x_MLOAD_1 2 (bvadd (_ bv60 6) ?x6158)) ?x1074)))
 (let (($x3183 (= ?x6942 (stack_t x_0 x_1 x_2 x_3 x_MLOAD_0 x_MLOAD_1 1 (bvadd (_ bv60 6) ?x7154)))))
 (let (($x5205 (forall ((w (_ BitVec 256)) )(let ((?x1297 (storage_t x_0 x_1 x_2 x_3 x_MLOAD_0 x_MLOAD_1 0 w)))
 (let ((?x7828 (storage_t x_0 x_1 x_2 x_3 x_MLOAD_0 x_MLOAD_1 1 w)))
 (= ?x7828 ?x1297))))
 ))
 (let (($x6262 (forall ((n (_ BitVec 6)) )(let ((?x2900 (stack_t x_0 x_1 x_2 x_3 x_MLOAD_0 x_MLOAD_1 0 n)))
 (let ((?x3611 (stack_t x_0 x_1 x_2 x_3 x_MLOAD_0 x_MLOAD_1 1 n)))
 (or (= ?x3611 ?x2900) (bvsle (bvadd (_ bv63 6) (sc_t 0)) n)))))
 ))
 (let (($x8228 (= ?x7154 ?x63)))
 (let ((?x806 (f_MLOAD x_0 x_1 x_2 x_3 x_MLOAD_0 x_MLOAD_1 (stack_t x_0 x_1 x_2 x_3 x_MLOAD_0 x_MLOAD_1 0 (bvadd (_ bv63 6) ?x63)))))
 (let (($x11317 (exc_halt_s 5)))
 (let (($x8991 (or $x11317 (not (= ((_ extract 6 6) (bvadd (_ bv1 7) (concat (_ bv0 1) (sc_s 5)))) (_ bv0 1))))))
 (let (($x7960 (forall ((w (_ BitVec 256)) )(let ((?x647 (storage_s x_0 x_1 x_2 x_3 x_MLOAD_0 x_MLOAD_1 5 w)))
 (let ((?x10880 (storage_s x_0 x_1 x_2 x_3 x_MLOAD_0 x_MLOAD_1 6 w)))
 (= ?x10880 ?x647))))
 ))
 (let (($x1983 (forall ((n (_ BitVec 6)) )(let ((?x2612 (stack_s x_0 x_1 x_2 x_3 x_MLOAD_0 x_MLOAD_1 5 n)))
 (let ((?x2927 (stack_s x_0 x_1 x_2 x_3 x_MLOAD_0 x_MLOAD_1 6 n)))
 (or (= ?x2927 ?x2612) (bvsle (sc_s 5) n)))))
 ))
 (let (($x3438 (= (used_gas_s x_0 x_1 x_2 x_3 x_MLOAD_0 x_MLOAD_1 6) (+ 3 (used_gas_s x_0 x_1 x_2 x_3 x_MLOAD_0 x_MLOAD_1 5)))))
 (let (($x4740 (= $x11317 (or (exc_halt_s 4) (not (bvsle (_ bv0 6) (bvadd (_ bv63 6) (sc_s 4))))))))
 (let (($x5120 (forall ((w (_ BitVec 256)) )(let ((?x2255 (storage_s x_0 x_1 x_2 x_3 x_MLOAD_0 x_MLOAD_1 4 w)))
 (let ((?x647 (storage_s x_0 x_1 x_2 x_3 x_MLOAD_0 x_MLOAD_1 5 w)))
 (= ?x647 ?x2255))))
 ))
 (let (($x452 (forall ((n (_ BitVec 6)) )(let ((?x1455 (stack_s x_0 x_1 x_2 x_3 x_MLOAD_0 x_MLOAD_1 4 n)))
 (let ((?x2612 (stack_s x_0 x_1 x_2 x_3 x_MLOAD_0 x_MLOAD_1 5 n)))
 (or (bvsle (bvadd (_ bv63 6) (sc_s 4)) n) (= ?x2612 ?x1455)))))
 ))
 (let ((?x8821 (used_gas_s x_0 x_1 x_2 x_3 x_MLOAD_0 x_MLOAD_1 5)))
 (let (($x7172 (exc_halt_s 4)))
 (let (($x8744 (= $x7172 (or (exc_halt_s 3) (not (bvsle (_ bv0 6) (bvadd (_ bv63 6) (sc_s 3))))))))
 (let (($x10158 (forall ((w (_ BitVec 256)) )(let ((?x1474 (storage_s x_0 x_1 x_2 x_3 x_MLOAD_0 x_MLOAD_1 3 w)))
 (let ((?x2255 (storage_s x_0 x_1 x_2 x_3 x_MLOAD_0 x_MLOAD_1 4 w)))
 (= ?x2255 ?x1474))))
 ))
 (let (($x10060 (forall ((n (_ BitVec 6)) )(let ((?x9906 (stack_s x_0 x_1 x_2 x_3 x_MLOAD_0 x_MLOAD_1 3 n)))
 (let ((?x1455 (stack_s x_0 x_1 x_2 x_3 x_MLOAD_0 x_MLOAD_1 4 n)))
 (or (bvsle (bvadd (_ bv63 6) (sc_s 3)) n) (= ?x1455 ?x9906)))))
 ))
 (let ((?x4559 (used_gas_s x_0 x_1 x_2 x_3 x_MLOAD_0 x_MLOAD_1 4)))
 (let (($x292 (exc_halt_s 3)))
 (let (($x9700 (= $x292 (or (exc_halt_s 2) (not (bvsle (_ bv0 6) (bvadd (_ bv59 6) (sc_s 2))))))))
 (let (($x3362 (forall ((w (_ BitVec 256)) )(let ((?x2229 (storage_s x_0 x_1 x_2 x_3 x_MLOAD_0 x_MLOAD_1 2 w)))
 (let ((?x1474 (storage_s x_0 x_1 x_2 x_3 x_MLOAD_0 x_MLOAD_1 3 w)))
 (= ?x1474 ?x2229))))
 ))
 (let (($x2273 (forall ((n (_ BitVec 6)) )(let ((?x6977 (stack_s x_0 x_1 x_2 x_3 x_MLOAD_0 x_MLOAD_1 2 n)))
 (let ((?x9906 (stack_s x_0 x_1 x_2 x_3 x_MLOAD_0 x_MLOAD_1 3 n)))
 (or (= ?x9906 ?x6977) (bvsle (bvadd (_ bv59 6) (sc_s 2)) n)))))
 ))
 (let ((?x218 (sc_s 2)))
 (let ((?x275 (sc_s 3)))
 (let (($x8325 (= ?x275 ?x218)))
 (let ((?x1941 (used_gas_s x_0 x_1 x_2 x_3 x_MLOAD_0 x_MLOAD_1 3)))
 (let (($x2785 (= (stack_s x_0 x_1 x_2 x_3 x_MLOAD_0 x_MLOAD_1 3 (bvadd (_ bv62 6) ?x275)) (stack_s x_0 x_1 x_2 x_3 x_MLOAD_0 x_MLOAD_1 2 (bvadd (_ bv62 6) ?x218)))))
 (let (($x273 (= (stack_s x_0 x_1 x_2 x_3 x_MLOAD_0 x_MLOAD_1 3 (bvadd (_ bv61 6) ?x275)) (stack_s x_0 x_1 x_2 x_3 x_MLOAD_0 x_MLOAD_1 2 (bvadd (_ bv61 6) ?x218)))))
 (let (($x10949 (= (stack_s x_0 x_1 x_2 x_3 x_MLOAD_0 x_MLOAD_1 3 (bvadd (_ bv60 6) ?x275)) (stack_s x_0 x_1 x_2 x_3 x_MLOAD_0 x_MLOAD_1 2 (bvadd (_ bv60 6) ?x218)))))
 (let ((?x9556 (bvadd (_ bv63 6) ?x218)))
 (let ((?x7776 (stack_s x_0 x_1 x_2 x_3 x_MLOAD_0 x_MLOAD_1 2 ?x9556)))
 (let (($x5943 (= (stack_s x_0 x_1 x_2 x_3 x_MLOAD_0 x_MLOAD_1 3 (bvadd (_ bv59 6) ?x275)) ?x7776)))
 (let (($x5741 (= (stack_s x_0 x_1 x_2 x_3 x_MLOAD_0 x_MLOAD_1 3 (bvadd (_ bv63 6) ?x275)) (stack_s x_0 x_1 x_2 x_3 x_MLOAD_0 x_MLOAD_1 2 (bvadd (_ bv59 6) ?x218)))))
 (let (($x247 (exc_halt_s 2)))
 (let (($x11033 (= $x247 (or (exc_halt_s 1) (not (bvsle (_ bv0 6) (bvadd (_ bv63 6) (sc_s 1))))))))
 (let (($x10877 (forall ((w (_ BitVec 256)) )(let ((?x8868 (storage_s x_0 x_1 x_2 x_3 x_MLOAD_0 x_MLOAD_1 1 w)))
 (let ((?x2229 (storage_s x_0 x_1 x_2 x_3 x_MLOAD_0 x_MLOAD_1 2 w)))
 (= ?x2229 ?x8868))))
 ))
 (let (($x2489 (forall ((n (_ BitVec 6)) )(let ((?x4944 (stack_s x_0 x_1 x_2 x_3 x_MLOAD_0 x_MLOAD_1 1 n)))
 (let ((?x6977 (stack_s x_0 x_1 x_2 x_3 x_MLOAD_0 x_MLOAD_1 2 n)))
 (or (bvsle (bvadd (_ bv63 6) (sc_s 1)) n) (= ?x6977 ?x4944)))))
 ))
 (let ((?x154 (sc_s 1)))
 (let (($x5855 (= ?x218 ?x154)))
 (let ((?x11098 (used_gas_s x_0 x_1 x_2 x_3 x_MLOAD_0 x_MLOAD_1 2)))
 (let ((?x1154 (bvadd (_ bv63 6) ?x154)))
 (let ((?x5013 (stack_s x_0 x_1 x_2 x_3 x_MLOAD_0 x_MLOAD_1 1 ?x1154)))
 (let (($x7481 (not (bvsle (_ bv0 6) (bvadd (_ bv63 6) ?x72)))))
 (let (($x6969 (or $x57 (not (= ((_ extract 6 6) (bvadd (_ bv1 7) (concat (_ bv0 1) ?x72))) (_ bv0 1))) $x7481)))
 (let (($x189 (exc_halt_s 1)))
 (let (($x1494 (= $x189 $x6969)))
 (let (($x6801 (forall ((w (_ BitVec 256)) )(let ((?x6116 (storage_s x_0 x_1 x_2 x_3 x_MLOAD_0 x_MLOAD_1 0 w)))
 (let ((?x8868 (storage_s x_0 x_1 x_2 x_3 x_MLOAD_0 x_MLOAD_1 1 w)))
 (= ?x8868 ?x6116))))
 ))
 (let (($x5030 (forall ((n (_ BitVec 6)) )(let ((?x72 (sc_s 0)))
 (let ((?x5517 (bvadd (_ bv63 6) ?x72)))
 (let (($x3750 (bvsle ?x5517 n)))
 (let ((?x10868 (stack_s x_0 x_1 x_2 x_3 x_MLOAD_0 x_MLOAD_1 0 n)))
 (let ((?x4944 (stack_s x_0 x_1 x_2 x_3 x_MLOAD_0 x_MLOAD_1 1 n)))
 (or (= ?x4944 ?x10868) $x3750)))))))
 ))
 (let (($x11508 (= ?x154 (bvadd (_ bv1 6) ?x72))))
 (let ((?x5517 (bvadd (_ bv63 6) ?x72)))
 (let ((?x2271 (stack_s x_0 x_1 x_2 x_3 x_MLOAD_0 x_MLOAD_1 0 ?x5517)))
 (let (($x4681 (forall ((w0 (_ BitVec 256)) )(let ((?x218 (sc_s 2)))
 (let ((?x9556 (bvadd (_ bv63 6) ?x218)))
 (let ((?x11849 (ite (= (stack_s x_0 x_1 x_2 x_3 x_MLOAD_0 x_MLOAD_1 2 ?x9556) w0) x_MLOAD_1 (_ bv0 256))))
 (let ((?x154 (sc_s 1)))
 (let ((?x1154 (bvadd (_ bv63 6) ?x154)))
 (let ((?x7764 (ite (= (stack_s x_0 x_1 x_2 x_3 x_MLOAD_0 x_MLOAD_1 1 ?x1154) w0) x_MLOAD_0 ?x11849)))
 (let ((?x2553 (f_MLOAD x_0 x_1 x_2 x_3 x_MLOAD_0 x_MLOAD_1 w0)))
 (= ?x2553 ?x7764)))))))))
 ))
 (let (($x899 (forall ((w (_ BitVec 256)) )(let ((?x6116 (storage_s x_0 x_1 x_2 x_3 x_MLOAD_0 x_MLOAD_1 0 w)))
 (= ?x6116 (_ bv0 256))))
 ))
 (let (($x1159 (= ?x1844 0)))
 (let (($x9480 (not $x57)))
 (let (($x9477 (= (stack_s x_0 x_1 x_2 x_3 x_MLOAD_0 x_MLOAD_1 0 (_ bv3 6)) x_3)))
 (let (($x3881 (= (stack_s x_0 x_1 x_2 x_3 x_MLOAD_0 x_MLOAD_1 0 (_ bv2 6)) x_2)))
 (let (($x2319 (= (stack_s x_0 x_1 x_2 x_3 x_MLOAD_0 x_MLOAD_1 0 (_ bv1 6)) x_1)))
 (let (($x11786 (= (stack_s x_0 x_1 x_2 x_3 x_MLOAD_0 x_MLOAD_1 0 (_ bv0 6)) x_0)))
 (let (($x11199 (= ?x72 (_ bv4 6))))
 (and $x11199 $x11786 $x2319 $x3881 $x9477 $x9480 $x1159 $x899 $x4681 (= ?x5013 ?x2271) (= (stack_s x_0 x_1 x_2 x_3 x_MLOAD_0 x_MLOAD_1 1 ?x5517) ?x2271) (= (used_gas_s x_0 x_1 x_2 x_3 x_MLOAD_0 x_MLOAD_1 1) (+ 3 ?x1844)) $x11508 $x5030 $x6801 $x1494 (= ?x7776 (f_MLOAD x_0 x_1 x_2 x_3 x_MLOAD_0 x_MLOAD_1 ?x5013)) (= ?x11098 (+ 3 (used_gas_s x_0 x_1 x_2 x_3 x_MLOAD_0 x_MLOAD_1 1))) $x5855 $x2489 $x10877 $x11033 $x5741 $x5943 $x10949 $x273 $x2785 (= ?x1941 (+ 3 ?x11098)) $x8325 $x2273 $x3362 $x9700 (= ?x4559 (+ 2 ?x1941)) (= (sc_s 4) (bvadd (_ bv63 6) ?x275)) $x10060 $x10158 $x8744 (= ?x8821 (+ 2 ?x4559)) (= (sc_s 5) (bvadd (_ bv63 6) (sc_s 4))) $x452 $x5120 $x4740 (= (stack_s x_0 x_1 x_2 x_3 x_MLOAD_0 x_MLOAD_1 6 (sc_s 5)) (_ bv0 256)) $x3438 (= ?x926 (bvadd (_ bv1 6) (sc_s 5))) $x1983 $x7960 (= $x772 $x8991) (= ?x1074 ?x806) (= (used_gas_t x_0 x_1 x_2 x_3 x_MLOAD_0 x_MLOAD_1 1) (+ 3 ?x6023)) $x8228 $x6262 $x5205 (= (exc_halt_t 1) (or $x56 (not (bvsle (_ bv0 6) (bvadd (_ bv63 6) ?x63))))) $x3183 $x1014 $x6703 $x8631 (= ?x2739 (+ 3 (used_gas_t x_0 x_1 x_2 x_3 x_MLOAD_0 x_MLOAD_1 1))) $x4685 $x11922 $x1703 $x171 $x8397 (= ?x11658 (+ 3 ?x2739)) $x7970 $x2555 $x4289 $x1423 (= (stack_t x_0 x_1 x_2 x_3 x_MLOAD_0 x_MLOAD_1 4 ?x11304) (_ bv0 256)) (= ?x3122 (+ 3 ?x11658)) $x3631 $x2215 $x3740 $x5900 $x7134 $x1712 (= ?x8961 (bvadd (_ bv63 6) ?x4818)) $x7666 $x4149 $x5714 $x73 $x337 $x58 $x1079 $x6578 (not (and $x5889 $x7520 $x11108 $x7531))))))))))))))))))))))))))))))))))))))))))))))))))))))))))))))))))))))))))))))))))))))))))))))))))))))))))))))))))))))))))
 )
(check-sat)
(get-proof)
